NAME          BLANK   
ROWS
 N  OBJROW
 L  R0000000
COLUMNS
    C0000000  OBJROW     -796.         R0000000  957.        
    C0000001  OBJROW     -682.         R0000000  851.        
    C0000002  OBJROW     -388.         R0000000  428.        
    C0000003  OBJROW     -159.         R0000000  351.        
    C0000004  OBJROW     -164.         R0000000  836.        
    C0000005  OBJROW     -810.         R0000000  469.        
    C0000006  OBJROW     -2.           R0000000  656.        
    C0000007  OBJROW     -128.         R0000000  162.        
    C0000008  OBJROW     -100.         R0000000  843.        
    C0000009  OBJROW     -838.         R0000000  153.        
RHS
    RHS       R0000000  15060.      
BOUNDS
 BV BOUND     C0000000  1.          
 BV BOUND     C0000001  1.          
 BV BOUND     C0000002  1.          
 BV BOUND     C0000003  1.          
 BV BOUND     C0000004  1.          
 BV BOUND     C0000005  1.          
 BV BOUND     C0000006  1.          
 BV BOUND     C0000007  1.          
 BV BOUND     C0000008  1.          
 BV BOUND     C0000009  1.          
ENDATA
